; output/00000007.smt: generated with canalyze.
; (1(U64) < $2) Assumption: false
(declare-const $2 Int)
(assert (and (< 0 $2) (< $2 18446744073709551615)))
(assert (not (< 1 $2)))
; (($cast: long $1$ - 0(S64)) >= 8(S64)) Assumption: true
(declare-const $1 Int)
(assert (and (< 0 $1) (< $1 18446744073709551615)))
(assert (>= (- $1 0) 8))
; $0 Assumption: true
(declare-const $0 Int)
(assert (and (< (- 9223372036854775808) $0) (< $0 9223372036854775807)))
(assert (not (= $0 0)))
(check-sat)
